s = array1d(1..400, [0, 11, 0, 17, 0, 0, 0, 12, 0, 0, 2, 16, 0, 0, 5, 6, 18, 15, 19, 3, 9, 0, 6, 0, 0, 0, 4, 0, 17, 14, 11, 12, 0, 0, 0, 0, 0, 10, 13, 1, 5, 0, 18, 9, 4, 0, 0, 8, 0, 16, 12, 0, 0, 0, 0, 19, 7, 17, 0, 0, 18, 3, 0, 10, 13, 0, 17, 2, 9, 0, 19, 4, 0, 0, 16, 0, 12, 0, 0, 0, 0, 0, 0, 15, 0, 10, 0, 7, 14, 1, 0, 0, 17, 16, 18, 0, 19, 11, 0, 0, 0, 6, 0, 0, 16, 0, 10, 14, 4, 18, 7, 17, 5, 0, 0, 12, 0, 0, 0, 13, 6, 0, 16, 8, 0, 19, 0, 0, 2, 0, 0, 0, 9, 18, 15, 0, 0, 4, 12, 0, 0, 0, 0, 6, 0, 8, 3, 0, 10, 0, 0, 0, 15, 14, 0, 17, 0, 7, 1, 2, 17, 1, 0, 0, 8, 9, 0, 5, 0, 0, 0, 10, 19, 0, 0, 15, 0, 12, 3, 0, 4, 0, 14, 0, 0, 5, 19, 0, 0, 8, 0, 0, 1, 0, 12, 0, 9, 18, 10, 0, 0, 15, 0, 13, 0, 1, 0, 0, 18, 0, 0, 6, 10, 0, 19, 4, 14, 0, 17, 0, 0, 0, 0, 1, 0, 4, 7, 17, 0, 2, 16, 3, 12, 0, 0, 0, 11, 13, 0, 0, 13, 0, 19, 0, 3, 15, 2, 1, 0, 0, 0, 0, 0, 0, 9, 11, 0, 6, 5, 0, 1, 0, 4, 0, 18, 6, 12, 0, 16, 10, 0, 14, 0, 0, 11, 0, 0, 0, 0, 8, 0, 10, 0, 14, 6, 0, 0, 3, 1, 7, 0, 5, 4, 2, 0, 0, 0, 0, 16, 9, 10, 7, 0, 0, 11, 0, 8, 19, 0, 17, 18, 0, 13, 15, 0, 5, 0, 0, 0, 16, 0, 14, 11, 0, 0, 0, 1, 13, 0, 0, 0, 2, 0, 5, 3, 8, 4, 0, 0, 6, 0, 0, 15, 0, 2, 0, 0, 0, 0, 0, 10, 9, 11, 13, 14, 1, 0, 5, 18, 0, 0, 5, 3, 7, 0, 11, 0, 0, 0, 9, 4, 0, 0, 12, 0, 2, 13, 0, 0, 0, 19, 2, 9, 3, 0, 18, 16, 0, 11, 0, 8, 0, 0, 1, 0, 0, 6, 0, 0, 12]);
n = 20;
